54687
1, 27, 31, 25, 52, 15, 36, 46, 39, 16, 10, 22, 29, 21, 23, 17, 48, 19, 32, 41, 13, 43, 40, 51, 5, 37, 7, 20, 50, 24, 35, 38, 8, 44, 49, 3, 6, 28, 55, 26, 53, 34, 54, 47, 30, 4, 18, 12, 9, 14, 2, 45, 11, 42, 33
